cant_alumnos = [71, 78, 65, 52, 65, 53, 57, 41, 40, 61, 80, 51, 42, 45, 57, 49, 44, 51, 43, 66, 65, 46, 57, 79, 75, 48, 43, 57, 55, 64, 53, 68, 77, 53, 56, 44, 47, 54, 69, 62, 55, 59, 68, 79, 41, 55, 78, 62, 47, 54, 67, 44, 69, 48, 67, 62, 70, 54, 68, 66, 67, 60, 41, 70, 60, 40, 58, 55];
